solution status: time limit reached
objective value:                                   55
shell_i_$_148                                       1 	(obj:0)
shell_j_$_95                                        1 	(obj:0)
shell_j_$_67                                        1 	(obj:0)
shell_j_$_103                                       1 	(obj:0)
shell_j_$_141                                       1 	(obj:0)
shell_i_$_53                                        1 	(obj:0)
shell_j_$_60                                        1 	(obj:0)
shell_i_$_96                                        1 	(obj:0)
shell_j_$_91                                        1 	(obj:0)
shell_i_$_59                                        1 	(obj:0)
shell_j_$_145                                       1 	(obj:0)
shell_j_$_149                                       1 	(obj:0)
shell_j_$_94                                        1 	(obj:0)
shell_j_$_87                                        1 	(obj:0)
shell_i_$_144                                       1 	(obj:0)
shell_i_$_98                                        1 	(obj:0)
shell_i_$_147                                       1 	(obj:0)
shell_i_$_58                                        1 	(obj:0)
shell_j_$_150                                       1 	(obj:0)
shell_j_$_85                                        1 	(obj:0)
shell_j_$_83                                        1 	(obj:0)
shell_i_$_68                                        1 	(obj:0)
shell_j_$_68                                        1 	(obj:0)
shell_j_$_99                                        1 	(obj:0)
shell_j_$_122                                       1 	(obj:0)
shell_i_$_54                                        1 	(obj:0)
shell_i_$_121                                       1 	(obj:0)
shell_j_$_146                                       1 	(obj:0)
shell_i_$_43                                        1 	(obj:0)
shell_j_$_61                                        1 	(obj:0)
shell_i_$_63                                        1 	(obj:0)
shell_j_$_142                                       1 	(obj:0)
shell_i_$_123                                       1 	(obj:0)
$_53_x                                            -12 	(obj:0)
$_87_x                                            -11 	(obj:0)
$_87_y                                            -12 	(obj:0)
$_87_z                                            -25 	(obj:0)
$_53_y                                             -9 	(obj:0)
$_53_z                                            -24 	(obj:0)
$_144_x                                           -12 	(obj:0)
$_144_y                                           -11 	(obj:0)
$_144_z                                           -25 	(obj:0)
$_67_x                                             -9 	(obj:0)
$_67_y                                            -12 	(obj:0)
$_98_x                                            -12 	(obj:0)
$_98_y                                            -10 	(obj:0)
$_98_z                                            -24 	(obj:0)
$_60_x                                            -11 	(obj:0)
$_60_y                                            -12 	(obj:0)
$_147_x                                           -12 	(obj:0)
$_147_y                                            -8 	(obj:0)
$_147_z                                           -25 	(obj:0)
$_60_z                                            -24 	(obj:0)
$_67_z                                            -20 	(obj:0)
$_58_x                                            -12 	(obj:0)
$_58_y                                            -10 	(obj:0)
$_58_z                                            -25 	(obj:0)
$_148_y                                           -11 	(obj:0)
$_96_x                                            -12 	(obj:0)
$_150_x                                            -9 	(obj:0)
$_150_y                                           -12 	(obj:0)
$_150_z                                           -23 	(obj:0)
$_96_y                                            -11 	(obj:0)
$_96_z                                            -21 	(obj:0)
$_85_x                                            -11 	(obj:0)
$_85_y                                            -12 	(obj:0)
$_85_z                                            -22 	(obj:0)
$_95_x                                            -11 	(obj:0)
$_103_x                                           -11 	(obj:0)
$_83_x                                             -8 	(obj:0)
$_83_y                                            -12 	(obj:0)
$_83_z                                            -25 	(obj:0)
$_91_x                                            -12 	(obj:0)
$_91_y                                            -12 	(obj:0)
$_68_x                                            -12 	(obj:0)
$_68_y                                            -12 	(obj:0)
$_68_z                                            -19 	(obj:0)
$_91_z                                            -22 	(obj:0)
$_103_y                                           -12 	(obj:0)
$_99_x                                            -12 	(obj:0)
$_99_y                                            -12 	(obj:0)
$_99_z                                            -25 	(obj:0)
$_103_z                                           -23 	(obj:0)
$_59_x                                            -12 	(obj:0)
$_122_x                                           -11 	(obj:0)
$_122_y                                           -12 	(obj:0)
$_122_z                                           -20 	(obj:0)
$_59_y                                             -9 	(obj:0)
$_59_z                                            -25 	(obj:0)
$_54_x                                            -12 	(obj:0)
$_54_y                                            -11 	(obj:0)
$_54_z                                            -23 	(obj:0)
$_95_y                                            -12 	(obj:0)
$_95_z                                            -21 	(obj:0)
$_121_x                                           -12 	(obj:0)
$_121_y                                            -8 	(obj:0)
$_121_z                                           -23 	(obj:0)
$_145_x                                            -9 	(obj:0)
$_145_y                                           -12 	(obj:0)
$_146_x                                           -10 	(obj:0)
$_146_y                                           -12 	(obj:0)
$_146_z                                           -24 	(obj:0)
$_145_z                                           -25 	(obj:0)
$_141_x                                           -12 	(obj:0)
$_43_x                                            -12 	(obj:0)
$_43_y                                            -12 	(obj:0)
$_43_z                                            -23 	(obj:0)
$_141_y                                           -12 	(obj:0)
$_149_x                                           -10 	(obj:0)
$_61_x                                             -9 	(obj:0)
$_61_y                                            -12 	(obj:0)
$_61_z                                            -24 	(obj:0)
$_149_y                                           -12 	(obj:0)
$_149_z                                           -25 	(obj:0)
$_63_x                                            -12 	(obj:0)
$_63_y                                            -10 	(obj:0)
$_63_z                                            -23 	(obj:0)
$_141_z                                           -21 	(obj:0)
$_148_z                                           -24 	(obj:0)
$_142_x                                           -12 	(obj:0)
$_142_y                                           -12 	(obj:0)
$_142_z                                           -20 	(obj:0)
$_94_x                                            -12 	(obj:0)
$_94_y                                            -12 	(obj:0)
$_123_x                                           -12 	(obj:0)
$_123_y                                            -9 	(obj:0)
$_123_z                                           -23 	(obj:0)
$_94_z                                            -24 	(obj:0)
$_148_x                                           -12 	(obj:0)
x167                                                1 	(obj:1)
x170                                                3 	(obj:1)
x173                                                1 	(obj:1)
x175                                                1 	(obj:1)
x181                                                2 	(obj:1)
x183                                                1 	(obj:1)
x185                                                1 	(obj:1)
x189                                                1 	(obj:1)
x192                                                1 	(obj:1)
x199                                                1 	(obj:1)
x202                                                1 	(obj:1)
x206                                                3 	(obj:1)
x209                                                2 	(obj:1)
x214                                                2 	(obj:1)
x218                                                1 	(obj:1)
x234                                                2 	(obj:1)
x239                                                3 	(obj:1)
x242                                                1 	(obj:1)
x245                                                4 	(obj:1)
x253                                                1 	(obj:1)
x257                                                1 	(obj:1)
x259                                                1 	(obj:1)
x260                                                1 	(obj:1)
x267                                                4 	(obj:1)
x270                                                1 	(obj:1)
x272                                                2 	(obj:1)
x273                                                2 	(obj:1)
x277                                                1 	(obj:1)
x278                                                3 	(obj:1)
x282                                                2 	(obj:1)
x285                                                1 	(obj:1)
x286                                                1 	(obj:1)
x294                                                2 	(obj:1)
